sat
(:arith-gcd-calls       1
 :arith-lower           19
 :arith-make-feasible   1
 :arith-max-columns     74
 :arith-max-rows        30
 :arith-patches         1
 :arith-patches-success 1
 :arith-upper           11
 :final-checks          1
 :max-memory            19.43
 :memory                18.72
 :mk-bool-var           30
 :num-allocs            235531
 :num-checks            1
 :rlimit-count          6864
 :time                  0.02
 :total-time            0.10)
